c description: Random 3-CNF over 19 variables and 81 clauses
c generator: CNFgen (0.9.2)
c copyright: (C) 2012-2022 Massimo Lauria <massimo.lauria@uniroma1.it>
c url: https://massimolauria.net/cnfgen
c command line: cnfgen --output CNF_4.28/19_bit_81_812.cnf randkcnf 3 19 81
c
p cnf 19 81
-4 11 -13 0
2 5 -18 0
6 8 9 0
-1 -9 -16 0
7 -9 -15 0
-3 5 9 0
6 -8 -18 0
1 -2 -14 0
13 -15 -17 0
-9 11 -13 0
2 4 13 0
-3 -4 12 0
12 15 19 0
-5 -11 -12 0
-5 10 -12 0
5 12 -15 0
-4 -7 -11 0
-1 -5 16 0
2 15 -19 0
6 -13 15 0
1 5 -8 0
-6 13 -17 0
-1 -5 19 0
-1 -5 6 0
-5 8 12 0
13 -15 18 0
4 5 -14 0
-1 -3 12 0
-1 4 -14 0
2 -12 -14 0
-14 18 19 0
1 9 -18 0
-12 17 19 0
-3 -6 -14 0
4 16 -19 0
-7 -14 15 0
-1 -3 -10 0
2 -5 6 0
-5 10 14 0
1 -11 15 0
-3 -6 19 0
-4 11 16 0
1 5 -12 0
-1 10 -19 0
-1 -11 15 0
-2 8 -16 0
5 -10 12 0
8 -11 15 0
-1 2 -7 0
-8 -12 18 0
-11 -13 18 0
5 -7 -14 0
6 13 19 0
-11 14 -18 0
-1 -6 -9 0
4 5 19 0
2 -9 10 0
4 -9 -12 0
3 5 8 0
6 8 -14 0
2 7 -15 0
-5 -6 17 0
-7 15 19 0
-8 10 -15 0
6 -8 -16 0
-5 9 -18 0
-11 -15 -17 0
2 4 6 0
-4 -5 -18 0
4 -9 15 0
8 14 -17 0
-2 12 18 0
-12 13 -19 0
6 -9 -19 0
2 8 10 0
-9 -10 -17 0
6 9 -10 0
-4 8 15 0
-4 10 -14 0
2 12 -16 0
-13 -17 -19 0
